VALUE 9090
12 538
12 539
13 505
13 537
16 508
18 505
19 506
20 545
20 507
23 507
30 546
67 505
76 501
76 506
80 507
89 507
146 510
192 507
235 503
239 502
248 505
271 504
271 509
302 510
302 511
304 508
329 505
336 511
364 505
364 509
366 508
384 533
384 540
445 504
445 508
477 505
512 97
512 182
512 123
513 146
513 89
514 67
514 342
515 304
516 123
517 19
517 100
517 90
517 12
518 248
519 366
520 13
521 366
522 18
522 20
522 470
522 182
523 224
523 209
523 149
524 177
524 149
524 13
524 30
525 209
526 23
527 16
528 18
529 85
530 177
531 336
532 103
533 477
533 239
534 85
534 90
535 470
536 192
536 235
540 100
540 84
540 103
541 329
542 76
543 67
544 80
547 342
548 84
549 224
550 97